Default variable names x1, x2 ... being created.
Default row names c1, c2 ... being created.
Tried aggregator 1 time.
Reduced MIP has 3238 rows, 160 columns, and 6554 nonzeros.
Reduced MIP has 160 binaries, 0 generals, 0 SOSs, and 0 indicators.
Presolve time = 0.01 sec. (7.86 ticks)
Found incumbent of value 0.000000 after 0.02 sec. (9.61 ticks)
Probing fixed 43 vars, tightened 0 bounds.
Probing time = 0.00 sec. (1.07 ticks)
Tried aggregator 1 time.
MIP Presolve eliminated 1872 rows and 43 columns.
Reduced MIP has 1366 rows, 117 columns, and 2810 nonzeros.
Reduced MIP has 117 binaries, 0 generals, 0 SOSs, and 0 indicators.
Presolve time = 0.00 sec. (3.84 ticks)
Probing time = 0.00 sec. (0.53 ticks)
Tried aggregator 1 time.
Reduced MIP has 1366 rows, 117 columns, and 2810 nonzeros.
Reduced MIP has 117 binaries, 0 generals, 0 SOSs, and 0 indicators.
Presolve time = 0.00 sec. (3.22 ticks)
Probing time = 0.00 sec. (0.53 ticks)
Clique table members: 1663.
MIP emphasis: balance optimality and feasibility.
MIP search method: dynamic search.
Parallel mode: deterministic, using up to 4 threads.
Root relaxation solution time = 0.01 sec. (5.04 ticks)

        Nodes                                         Cuts/
   Node  Left     Objective  IInf  Best Integer    Best Bound    ItCnt     Gap

*     0+    0                            0.0000       37.0000              --- 
      0     0       18.5000   117        0.0000       18.5000      182     --- 
      0     0       16.5000   113        0.0000  Cliques: 441      201     --- 
      0     0       16.0777   112        0.0000       Cuts: 2      220     --- 
*     0+    0                            1.0000       16.0777              --- 
      0     0       16.0293   113        1.0000      Fract: 1      231     --- 
      0     0       16.0092   113        1.0000      Fract: 1      235     --- 
      0     0        cutoff              1.0000        1.0000      235    0.00%
Elapsed time = 0.27 sec. (152.04 ticks, tree = 0.00 MB, solutions = 2)

Clique cuts applied:  377
Lift and project cuts applied:  1
Gomory fractional cuts applied:  3

Root node processing (before b&c):
  Real time             =    0.27 sec. (152.05 ticks)
Parallel b&c, 4 threads:
  Real time             =    0.00 sec. (0.00 ticks)
  Sync time (average)   =    0.00 sec.
  Wait time (average)   =    0.00 sec.
                          ------------
Total (root+branch&cut) =    0.27 sec. (152.05 ticks)
Default variable names x1, x2 ... being created.
Default row names c1, c2 ... being created.
Tried aggregator 1 time.
Reduced MIP has 3238 rows, 160 columns, and 6554 nonzeros.
Reduced MIP has 160 binaries, 0 generals, 0 SOSs, and 0 indicators.
Presolve time = 0.01 sec. (7.86 ticks)
Found incumbent of value 0.000000 after 0.01 sec. (9.61 ticks)
Probing time = 0.00 sec. (0.76 ticks)
Tried aggregator 1 time.
Reduced MIP has 3238 rows, 160 columns, and 6554 nonzeros.
Reduced MIP has 160 binaries, 0 generals, 0 SOSs, and 0 indicators.
Presolve time = 0.01 sec. (7.86 ticks)
Probing time = 0.00 sec. (0.76 ticks)
Clique table members: 3237.
MIP emphasis: balance optimality and feasibility.
MIP search method: dynamic search.
Parallel mode: deterministic, using up to 4 threads.
Root relaxation solution time = 0.03 sec. (12.98 ticks)

        Nodes                                         Cuts/
   Node  Left     Objective  IInf  Best Integer    Best Bound    ItCnt     Gap

*     0+    0                            0.0000       80.0000              --- 
      0     0       56.0000   160        0.0000       56.0000      234     --- 
*     0+    0                            2.0000       56.0000              --- 
      0     0       55.5547   159        2.0000      Fract: 1      330     --- 
      0     0       55.0419   159        2.0000      Fract: 1      401     --- 
      0     2       55.0419   159        2.0000       53.3333      401     --- 
Elapsed time = 0.61 sec. (469.16 ticks, tree = 0.00 MB, solutions = 2)
    204   156       46.2712   137        2.0000       52.3756     5562     --- 
    499   340        cutoff              2.0000       49.7780    13988     --- 
    823   517        cutoff              2.0000       23.6842    22379     --- 
   1233   799        cutoff              2.0000       22.1406    29861     --- 
   1571  1011        cutoff              2.0000       21.0606    38649  953.03%
   1813  1060        cutoff              2.0000       19.2143    49069  860.71%
   2162  1235        7.3333    77        2.0000       17.7193    57711  785.96%
   2548  1401        cutoff              2.0000       15.8125    67491  690.62%
   2834  1441        cutoff              2.0000       13.7708    78519  588.54%
   3882  1925       54.1199   158        2.0000        9.7500    99022  387.50%
Elapsed time = 4.45 sec. (3647.78 ticks, tree = 18.76 MB, solutions = 2)
   3945   942        cutoff              2.0000        9.7500   103093  387.50%
   4820   797        4.1739    75        2.0000        9.7500   124224  387.50%
   5968  1318        cutoff              2.0000        9.7500   153588  387.50%
   7523  2055        5.1148    69        2.0000        9.7500   184672  387.50%
   8747  1712       24.1216   109        2.0000        9.6515   210609  382.58%
   9999  1073        cutoff              2.0000        9.6515   241387  382.58%
  11674  2051       20.4167   102        2.0000        9.6515   271513  382.58%
  13586  3351        cutoff              2.0000        9.6515   304406  382.58%
  15639  4640        8.1525    72        2.0000        9.6515   333587  382.58%
  17685  5707        3.3898    64        2.0000        9.6515   362302  382.58%
Elapsed time = 15.87 sec. (13236.22 ticks, tree = 88.33 MB, solutions = 2)
  20029  6731        cutoff              2.0000        8.9796   401592  348.98%
  22684  7590        cutoff              2.0000        7.5000   449503  275.00%
  25143  7771        cutoff              2.0000        6.4737   498960  223.68%
  27603  7097        cutoff              2.0000        5.4762   546207  173.81%
  30321  5571        cutoff              2.0000        4.5161   592338  125.81%
  34221  2630        3.0769    56        2.0000        3.6000   631764   80.00%

Gomory fractional cuts applied:  5

Root node processing (before b&c):
  Real time             =    0.61 sec. (467.84 ticks)
Parallel b&c, 4 threads:
  Real time             =   22.03 sec. (18723.81 ticks)
  Sync time (average)   =    1.31 sec.
  Wait time (average)   =    1.34 sec.
                          ------------
Total (root+branch&cut) =   22.64 sec. (19191.65 ticks)
